c description: Perfect Matching Principle on 
c generator: CNFgen (0.9.0)
c copyright: (C) 2012-2020 Massimo Lauria <massimo.lauria@uniroma1.it>
c url: https://massimolauria.net/cnfgen
c
p cnf 80 365
-1 -2 0
1 2 0
-3 -4 0
-3 -5 0
-3 -6 0
-3 -7 0
-3 -8 0
-4 -5 0
-4 -6 0
-4 -7 0
-4 -8 0
-5 -6 0
-5 -7 0
-5 -8 0
-6 -7 0
-6 -8 0
-7 -8 0
3 4 5 6 7 8 0
-9 -10 0
-9 -11 0
-9 -12 0
-9 -13 0
-9 -14 0
-10 -11 0
-10 -12 0
-10 -13 0
-10 -14 0
-11 -12 0
-11 -13 0
-11 -14 0
-12 -13 0
-12 -14 0
-13 -14 0
9 10 11 12 13 14 0
-9 -15 0
-9 -16 0
-9 -17 0
-15 -16 0
-15 -17 0
-16 -17 0
9 15 16 17 0
-18 -19 0
-18 -20 0
-18 -21 0
-19 -20 0
-19 -21 0
-20 -21 0
18 19 20 21 0
-18 -22 0
-18 -23 0
-18 -24 0
-18 -25 0
-18 -26 0
-18 -27 0
-18 -28 0
-22 -23 0
-22 -24 0
-22 -25 0
-22 -26 0
-22 -27 0
-22 -28 0
-23 -24 0
-23 -25 0
-23 -26 0
-23 -27 0
-23 -28 0
-24 -25 0
-24 -26 0
-24 -27 0
-24 -28 0
-25 -26 0
-25 -27 0
-25 -28 0
-26 -27 0
-26 -28 0
-27 -28 0
18 22 23 24 25 26 27 28 0
-29 -30 0
29 30 0
-31 -32 0
31 32 0
-33 -34 0
-33 -35 0
-33 -36 0
-34 -35 0
-34 -36 0
-35 -36 0
33 34 35 36 0
-31 -37 0
-31 -38 0
-37 -38 0
31 37 38 0
-39 -40 0
-39 -41 0
-40 -41 0
39 40 41 0
42 0
-10 -22 0
-10 -43 0
-10 -44 0
-10 -45 0
-10 -46 0
-22 -43 0
-22 -44 0
-22 -45 0
-22 -46 0
-43 -44 0
-43 -45 0
-43 -46 0
-44 -45 0
-44 -46 0
-45 -46 0
10 22 43 44 45 46 0
-29 -47 0
-29 -48 0
-29 -49 0
-29 -50 0
-47 -48 0
-47 -49 0
-47 -50 0
-48 -49 0
-48 -50 0
-49 -50 0
29 47 48 49 50 0
-3 -51 0
-3 -52 0
-51 -52 0
3 51 52 0
-23 -53 0
-23 -54 0
-53 -54 0
23 53 54 0
-24 -55 0
-24 -56 0
-24 -57 0
-24 -58 0
-55 -56 0
-55 -57 0
-55 -58 0
-56 -57 0
-56 -58 0
-57 -58 0
24 55 56 57 58 0
-4 -15 0
-4 -25 0
-4 -59 0
-4 -60 0
-15 -25 0
-15 -59 0
-15 -60 0
-25 -59 0
-25 -60 0
-59 -60 0
4 15 25 59 60 0
-33 -51 0
-33 -61 0
-51 -61 0
33 51 61 0
-19 -43 0
-19 -47 0
-43 -47 0
19 43 47 0
-11 -30 0
-11 -37 0
-11 -39 0
-30 -37 0
-30 -39 0
-37 -39 0
11 30 37 39 0
0
-42 -53 0
-42 -62 0
-42 -63 0
-42 -64 0
-42 -65 0
-53 -62 0
-53 -63 0
-53 -64 0
-53 -65 0
-62 -63 0
-62 -64 0
-62 -65 0
-63 -64 0
-63 -65 0
-64 -65 0
42 53 62 63 64 65 0
-20 -40 0
-20 -44 0
-20 -66 0
-20 -67 0
-20 -68 0
-20 -69 0
-40 -44 0
-40 -66 0
-40 -67 0
-40 -68 0
-40 -69 0
-44 -66 0
-44 -67 0
-44 -68 0
-44 -69 0
-66 -67 0
-66 -68 0
-66 -69 0
-67 -68 0
-67 -69 0
-68 -69 0
20 40 44 66 67 68 69 0
-5 -12 0
-5 -26 0
-5 -45 0
-5 -70 0
-5 -71 0
-5 -72 0
-12 -26 0
-12 -45 0
-12 -70 0
-12 -71 0
-12 -72 0
-26 -45 0
-26 -70 0
-26 -71 0
-26 -72 0
-45 -70 0
-45 -71 0
-45 -72 0
-70 -71 0
-70 -72 0
-71 -72 0
5 12 26 45 70 71 72 0
-1 -21 0
-1 -34 0
-1 -48 0
-1 -73 0
-1 -74 0
-21 -34 0
-21 -48 0
-21 -73 0
-21 -74 0
-34 -48 0
-34 -73 0
-34 -74 0
-48 -73 0
-48 -74 0
-73 -74 0
1 21 34 48 73 74 0
-13 -27 0
-13 -35 0
-13 -49 0
-13 -73 0
-13 -75 0
-27 -35 0
-27 -49 0
-27 -73 0
-27 -75 0
-35 -49 0
-35 -73 0
-35 -75 0
-49 -73 0
-49 -75 0
-73 -75 0
13 27 35 49 73 75 0
-55 -70 0
-55 -76 0
-70 -76 0
55 70 76 0
-16 -36 0
-16 -62 0
-16 -77 0
-36 -62 0
-36 -77 0
-62 -77 0
16 36 62 77 0
-28 -41 0
-28 -61 0
-28 -71 0
-41 -61 0
-41 -71 0
-61 -71 0
28 41 61 71 0
0
-63 -66 0
-63 -75 0
-66 -75 0
63 66 75 0
-6 -38 0
-6 -50 0
-6 -52 0
-6 -54 0
-6 -67 0
-6 -72 0
-6 -74 0
-6 -78 0
-38 -50 0
-38 -52 0
-38 -54 0
-38 -67 0
-38 -72 0
-38 -74 0
-38 -78 0
-50 -52 0
-50 -54 0
-50 -67 0
-50 -72 0
-50 -74 0
-50 -78 0
-52 -54 0
-52 -67 0
-52 -72 0
-52 -74 0
-52 -78 0
-54 -67 0
-54 -72 0
-54 -74 0
-54 -78 0
-67 -72 0
-67 -74 0
-67 -78 0
-72 -74 0
-72 -78 0
-74 -78 0
6 38 50 52 54 67 72 74 78 0
-2 -7 0
-2 -46 0
-2 -56 0
-2 -64 0
-2 -79 0
-7 -46 0
-7 -56 0
-7 -64 0
-7 -79 0
-46 -56 0
-46 -64 0
-46 -79 0
-56 -64 0
-56 -79 0
-64 -79 0
2 7 46 56 64 79 0
-8 -59 0
8 59 0
-78 -80 0
78 80 0
-17 -68 0
-17 -80 0
-68 -80 0
17 68 80 0
-14 -32 0
-14 -57 0
-14 -77 0
-32 -57 0
-32 -77 0
-57 -77 0
14 32 57 77 0
-60 -65 0
-60 -69 0
-60 -76 0
-60 -79 0
-65 -69 0
-65 -76 0
-65 -79 0
-69 -76 0
-69 -79 0
-76 -79 0
60 65 69 76 79 0
58 0